
Gurobi 11.0.1 (win64) logging started Thu May 16 18:23:58 2024

Set parameter LogFile to value "output/solver_log8.txt"
Gurobi Optimizer version 11.0.1 build v11.0.1rc0 (win64 - Windows 11.0 (22631.2))

CPU model: 11th Gen Intel(R) Core(TM) i7-1165G7 @ 2.80GHz, instruction set [SSE2|AVX|AVX2|AVX512]
Thread count: 4 physical cores, 8 logical processors, using up to 8 threads

Optimize a model with 4931 rows, 1199 columns and 91546 nonzeros
Model fingerprint: 0x49989045
Variable types: 568 continuous, 631 integer (631 binary)
Coefficient statistics:
  Matrix range     [4e-01, 1e+05]
  Objective range  [1e+00, 1e+02]
  Bounds range     [1e+00, 1e+00]
  RHS range        [1e-02, 1e+05]

User MIP start produced solution with objective 40152.8 (0.01s)
User MIP start produced solution with objective 40152.8 (0.01s)
Loaded user MIP start with objective 40152.8

Presolve removed 831 rows and 431 columns
Presolve time: 0.11s
Presolved: 4100 rows, 768 columns, 77866 nonzeros
Variable types: 527 continuous, 241 integer (238 binary)

Root relaxation: objective 4.800085e+04, 1421 iterations, 0.09 seconds (0.15 work units)

    Nodes    |    Current Node    |     Objective Bounds      |     Work
 Expl Unexpl |  Obj  Depth IntInf | Incumbent    BestBd   Gap | It/Node Time

     0     0 48000.8511    0   34 40152.8235 48000.8511  19.5%     -    0s
     0     0 45988.9932    0   39 40152.8235 45988.9932  14.5%     -    0s
     0     0 45550.2937    0   64 40152.8235 45550.2937  13.4%     -    0s
     0     0 45545.0646    0   65 40152.8235 45545.0646  13.4%     -    0s
     0     0 45544.8976    0   66 40152.8235 45544.8976  13.4%     -    0s
     0     0 45084.1371    0   66 40152.8235 45084.1371  12.3%     -    1s
     0     0 44702.9401    0   49 40152.8235 44702.9401  11.3%     -    1s
     0     0 44702.9401    0   53 40152.8235 44702.9401  11.3%     -    1s
     0     0 44702.9401    0   53 40152.8235 44702.9401  11.3%     -    1s
     0     0 44702.9401    0   61 40152.8235 44702.9401  11.3%     -    1s
     0     0 44702.9401    0   63 40152.8235 44702.9401  11.3%     -    1s
     0     0 44702.9401    0   73 40152.8235 44702.9401  11.3%     -    1s
     0     0 44702.9401    0   76 40152.8235 44702.9401  11.3%     -    1s
     0     0 44702.9401    0   81 40152.8235 44702.9401  11.3%     -    1s
     0     0 44702.9401    0   74 40152.8235 44702.9401  11.3%     -    1s
     0     0 44702.9401    0   73 40152.8235 44702.9401  11.3%     -    1s
     0     0 44702.9401    0   70 40152.8235 44702.9401  11.3%     -    2s
     0     0 44702.9401    0   62 40152.8235 44702.9401  11.3%     -    2s
     0     0 44702.9401    0   60 40152.8235 44702.9401  11.3%     -    2s
     0     0 44701.6287    0   63 40152.8235 44701.6287  11.3%     -    2s
     0     0 44701.4110    0   68 40152.8235 44701.4110  11.3%     -    2s
     0     0 44687.2659    0   68 40152.8235 44687.2659  11.3%     -    2s
     0     0 44605.7167    0   70 40152.8235 44605.7167  11.1%     -    2s
     0     0 44605.7167    0   73 40152.8235 44605.7167  11.1%     -    2s
     0     0 44605.7167    0   71 40152.8235 44605.7167  11.1%     -    2s
     0     0 44605.7167    0   66 40152.8235 44605.7167  11.1%     -    2s
     0     0 44605.7167    0   66 40152.8235 44605.7167  11.1%     -    3s
     0     0 44605.7167    0   72 40152.8235 44605.7167  11.1%     -    3s
     0     0 44605.7167    0   71 40152.8235 44605.7167  11.1%     -    3s
     0     0 44605.7167    0   56 40152.8235 44605.7167  11.1%     -    3s
     0     0 44605.7167    0   56 40152.8235 44605.7167  11.1%     -    3s
     0     0 44605.7167    0   58 40152.8235 44605.7167  11.1%     -    3s
     0     0 44605.7167    0   63 40152.8235 44605.7167  11.1%     -    3s
     0     0 44605.7167    0   62 40152.8235 44605.7167  11.1%     -    3s
     0     0 44605.7167    0   60 40152.8235 44605.7167  11.1%     -    3s
     0     0 44605.7167    0   61 40152.8235 44605.7167  11.1%     -    3s
     0     0 44605.7167    0   64 40152.8235 44605.7167  11.1%     -    3s
     0     0 44605.7167    0   64 40152.8235 44605.7167  11.1%     -    3s
     0     0 44605.7167    0   67 40152.8235 44605.7167  11.1%     -    3s
     0     0 44597.3230    0   69 40152.8235 44597.3230  11.1%     -    3s
     0     0 44597.3230    0   65 40152.8235 44597.3230  11.1%     -    4s
     0     0 44592.0429    0   65 40152.8235 44592.0429  11.1%     -    4s
     0     2 44592.0429    0   65 40152.8235 44592.0429  11.1%     -    4s
    19    24 43476.9592    5   53 40152.8235 43900.3085  9.33%   417    5s
H  190   142                    40153.310930 43349.8470  7.96%   513    9s
H  193   142                    40157.950769 43349.8470  7.95%   521    9s
   220   159     cutoff   10      40157.9508 43349.8470  7.95%   562   10s
H  221   159                    40159.207327 43349.8470  7.94%   560   10s
H  257   172                    40160.049665 43349.8470  7.94%   576   11s
H  433   192                    40160.344579 42713.4157  6.36%   575   14s
   488   201 41221.5339    8   33 40160.3446 42273.3294  5.26%   571   15s
  1057   364 40173.9014   33   16 40160.3446 41639.9180  3.68%   449   22s
  1397   427     cutoff   22      40160.3446 41313.9478  2.87%   413   25s
H 1459   422                    40160.616397 41216.0185  2.63%   418   29s
  1512   450 40264.6605   30   32 40160.6164 41115.0069  2.38%   422   30s
* 2331   478              71    40172.103811 40389.5171  0.54%   345   34s
  2412   674 40173.9553   30    8 40172.1038 40335.3614  0.41%   337   35s
* 2866   680              63    40173.003821 40307.8727  0.34%   294   36s

Cutting planes:
  Gomory: 4
  Implied bound: 21
  MIR: 152
  RLT: 7
  BQP: 2

Explored 3588 nodes (882340 simplex iterations) in 37.98 seconds (86.10 work units)
Thread count was 8 (of 8 available processors)

Solution count 10: 40173 40173 40172.1 ... 40152.8

Optimal solution found (tolerance 1.00e-04)
Best objective 4.017300382080e+04, best bound 4.017417223601e+04, gap 0.0029%
